certificates/rado_a6_c10_N13.cnf
c Rad2 upper bound instance: x1 + 6*x2 - x3 = 10, interval [1,13]
p cnf 13 50
1 2 3 0
-1 -2 -3 0
1 3 9 0
-1 -3 -9 0
2 4 0
-2 -4 0
2 3 10 0
-2 -3 -10 0
2 3 5 0
-2 -3 -5 0
3 11 0
-3 -11 0
2 4 6 0
-2 -4 -6 0
3 4 12 0
-3 -4 -12 0
1 5 0
-1 -5 0
2 5 7 0
-2 -5 -7 0
3 5 13 0
-3 -5 -13 0
1 2 6 0
-1 -2 -6 0
2 6 8 0
-2 -6 -8 0
1 3 7 0
-1 -3 -7 0
2 7 9 0
-2 -7 -9 0
1 4 8 0
-1 -4 -8 0
2 8 10 0
-2 -8 -10 0
1 5 9 0
-1 -5 -9 0
2 9 11 0
-2 -9 -11 0
1 6 10 0
-1 -6 -10 0
2 10 12 0
-2 -10 -12 0
1 7 11 0
-1 -7 -11 0
2 11 13 0
-2 -11 -13 0
1 8 12 0
-1 -8 -12 0
1 9 13 0
-1 -9 -13 0
