certificates/rado_a6_c10_N13.drat
2 3 0
d 2 1 3 0
-11 -13 0
-13 0
-2 -3 0
d -2 -1 -3 0
-3 0
11 0
5 0
2 0
-9 0
-1 0
-7 0
-4 0
0
